3 
4  36 58 
5  14 30 45 
6  00 15 30 45 
7  00 15 30 45 
8  00 15 30 45 
9  00 15 31 46 
10  01 16 31 46 
11  01 16 31 46 
12  01 16 31 46 
13  01 16 31 46 
14  01 16 31 45 
15  00 15 30 45 
16  00 15 30 45 
17  00 15 30 45 
18  00 15 31 46 
19  01 16 31 46 
20  01 16 31 46 
21  01 16 31 46 
22  05 20 35 
23 
